NAME : straight_line_constant_10_1_1_1.tsp
COMMENT : straight_line_constant_10_1_1_1.tsp
TYPE : TSP
DIMENSION : 10
EDGE_WEIGHT_TYPE : EUC_2D
NODE_COORD_SECTION
1 100.000000 100.000000
2 101.000000 101.000000
3 102.000000 102.000000
4 103.000000 103.000000
5 104.000000 104.000000
6 105.000000 105.000000
7 106.000000 106.000000
8 107.000000 107.000000
9 108.000000 108.000000
10 109.000000 109.000000
EOF